sifdecoder -A pc64.lnx.gfo -st   LSNNODOC

 Problem name: LSNNODOC

 Double precision version will be formed

 The objective function uses 1 nonlinear group
 
 There are 4 linear equality constraints
 
 There are 2 free variables
 There are 3 variables bounded from below and above 
 
 
 File successfully decoded
 CUTEST: tools (double precision version) compiled successfully
 CUTEst: ipopt (double precision version) compiled successfully

******************************************************************************
This program contains Ipopt, a library for large-scale nonlinear optimization.
 Ipopt is released as open source code under the Eclipse Public License (EPL).
         For more information visit http://projects.coin-or.org/Ipopt
******************************************************************************

This is Ipopt version trunk, running with linear solver ma57.

Number of nonzeros in equality constraint Jacobian...:       10
Number of nonzeros in inequality constraint Jacobian.:        0
Number of nonzeros in Lagrangian Hessian.............:       10

Reallocating memory for MA57: lfact (166)
Total number of variables............................:        5
                     variables with only lower bounds:        0
                variables with lower and upper bounds:        3
                     variables with only upper bounds:        0
Total number of equality constraints.................:        4
Total number of inequality constraints...............:        0
        inequality constraints with only lower bounds:        0
   inequality constraints with lower and upper bounds:        0
        inequality constraints with only upper bounds:        0

iter    objective    inf_pr   inf_du lg(mu)  ||d||  lg(rg) alpha_du alpha_pr  ls
   0  2.5285511e+03 2.00e-02 9.84e+01  -1.0 0.00e+00    -  0.00e+00 0.00e+00   0
   1  9.2442770e+02 1.38e-09 3.51e+01  -1.0 1.03e+00    -  7.79e-01 1.00e+00f  1
   2  3.6779312e+02 1.10e-09 1.23e+01  -1.0 1.06e+00    -  4.41e-01 1.00e+00f  1
   3  1.7433961e+02 1.11e-09 4.62e+00  -1.0 1.36e+00    -  1.00e+00 9.64e-01f  1
   4  1.3474793e+02 3.33e-09 1.46e+00  -1.0 8.95e-01    -  1.00e+00 8.43e-01f  1
   5  1.3496117e+02 3.55e-09 7.63e-01  -1.0 5.55e-01    -  1.00e+00 2.69e-01f  2
   6  1.2782112e+02 9.27e-10 3.63e-02  -1.7 1.58e-01    -  1.00e+00 1.00e+00f  1
   7  1.2400724e+02 2.22e-10 1.47e-02  -2.5 1.06e-01    -  1.00e+00 1.00e+00f  1
   8  1.2316074e+02 2.19e-11 9.01e-04  -3.8 2.69e-02    -  1.00e+00 1.00e+00f  1
   9  1.2311271e+02 4.25e-13 3.15e-06  -5.7 1.59e-03    -  1.00e+00 1.00e+00f  1
iter    objective    inf_pr   inf_du lg(mu)  ||d||  lg(rg) alpha_du alpha_pr  ls
  10  1.2311245e+02 2.98e-13 3.90e-05  -8.6 8.65e-06    -  1.00e+00 9.93e-01f  1
  11  1.2311245e+02 3.67e-11 4.98e-16  -8.6 3.43e-08    -  1.00e+00 1.00e+00f  1

Number of Iterations....: 11

                                   (scaled)                 (unscaled)
Objective...............:   4.8080042822919191e+00    1.2311244799798465e+02
Dual infeasibility......:   4.9771614952504305e-16    1.2744384151619332e-14
Constraint violation....:   3.6660452451542369e-11    3.6660452451542369e-11
Complementarity.........:   4.9678397029158485e-09    1.2720515024084108e-07
Overall NLP error.......:   4.9678397029158485e-09    1.2720515024084108e-07


Number of objective function evaluations             = 15
Number of objective gradient evaluations             = 12
Number of equality constraint evaluations            = 15
Number of inequality constraint evaluations          = 0
Number of equality constraint Jacobian evaluations   = 12
Number of inequality constraint Jacobian evaluations = 0
Number of Lagrangian Hessian evaluations             = 11
Total CPU secs in IPOPT (w/o function evaluations)   =      0.024
Total CPU secs in NLP function evaluations           =      0.002

EXIT: Optimal Solution Found.

************************ CUTEst statistics ************************


 Package used            :  IPOPT
 Problem                 :  LSNNODOC  
 # variables             =               5
 # constraints           =               4
 # objective functions   =        0.2800000E+02
 # objective gradients   =        0.1300000E+02
 # objective Hessians    =        0.1200000E+02
 # Hessian-vector prdct  =        0.0000000E+00
 # constraints functions =        0.2900000E+02
 # constraints gradients =        0.1400000E+02
 # constraints Hessians  =        0.1200000E+02
 Exit code               =               0
 Final f                 =        1.2311244799798465D+02
 Bounds feasibility      =        1.6473046926535062D-08
 Set up time             =            0.00 seconds
 Solve time              =            0.06 seconds


******************************************************************

